Gurobi Optimizer version 9.1.2 build v9.1.2rc0 (linux64)
Thread count: 36 physical cores, 72 logical processors, using up to 32 threads
Optimize a model with 12 rows, 57 columns and 590 nonzeros
Model fingerprint: 0xf32eec78
Model has 47 quadratic constraints
Coefficient statistics:
  Matrix range     [2e-05, 3e+00]
  QMatrix range    [1e+00, 1e+00]
  QLMatrix range   [1e+00, 1e+00]
  Objective range  [8e-03, 7e-01]
  Bounds range     [1e+00, 1e+00]
  RHS range        [1e+00, 1e+00]
Presolve removed 9 rows and 0 columns

Continuous model is non-convex -- solving as a MIP.

Presolve removed 9 rows and 0 columns
Presolve time: 0.00s
Presolved: 189 rows, 57 columns, 443 nonzeros
Presolved model has 47 bilinear constraint(s)
Variable types: 57 continuous, 0 integer (0 binary)

Root relaxation: objective -1.743721e+00, 44 iterations, 0.00 seconds

    Nodes    |    Current Node    |     Objective Bounds      |     Work
 Expl Unexpl |  Obj  Depth IntInf | Incumbent    BestBd   Gap | It/Node Time

     0     0   -1.74372    0   38          -   -1.74372      -     -    0s
H    0     0                       0.6147548   -1.74372   384%     -    0s
     0     0   -1.64739    0    1    0.61475   -1.64739   368%     -    0s
H    0     0                      -1.6450460   -1.64739  0.14%     -    0s
     0     0     cutoff    0        -1.64505   -1.64505  0.00%     -    0s

Cutting planes:
  RLT: 25
  BQP: 3

Explored 1 nodes (76 simplex iterations) in 0.01 seconds
Thread count was 32 (of 72 available processors)

Solution count 2: -1.64505 0.614755 
No other solutions better than -1.64505

Optimal solution found (tolerance 1.00e-04)
Best objective -1.645045978473e+00, best bound -1.645045978473e+00, gap 0.0000%

User-callback calls 78, time in user-callback 0.00 sec
Gurobi Optimizer version 9.1.2 build v9.1.2rc0 (linux64)
Thread count: 36 physical cores, 72 logical processors, using up to 32 threads
Optimize a model with 60 rows, 300 columns and 15500 nonzeros
Model fingerprint: 0x2ba0d9d9
Model has 250 quadratic constraints
Coefficient statistics:
  Matrix range     [1e-06, 4e+00]
  QMatrix range    [1e+00, 1e+00]
  QLMatrix range   [1e+00, 1e+00]
  Objective range  [2e-04, 1e+00]
  Bounds range     [1e+00, 1e+00]
  RHS range        [1e+00, 1e+00]
Presolve removed 12 rows and 0 columns

Continuous model is non-convex -- solving as a MIP.

Presolve removed 12 rows and 0 columns
Presolve time: 0.01s
Presolved: 1048 rows, 300 columns, 13862 nonzeros
Presolved model has 250 bilinear constraint(s)
Variable types: 300 continuous, 0 integer (0 binary)

Root relaxation: objective -2.565830e+01, 343 iterations, 0.02 seconds

    Nodes    |    Current Node    |     Objective Bounds      |     Work
 Expl Unexpl |  Obj  Depth IntInf | Incumbent    BestBd   Gap | It/Node Time

     0     0  -25.65830    0  209          -  -25.65830      -     -    0s
     0     0  -24.12258    0  177          -  -24.12258      -     -    0s
     0     0  -23.81110    0  108          -  -23.81110      -     -    0s
     0     0  -23.81006    0  108          -  -23.81006      -     -    0s
     0     0  -23.80950    0  108          -  -23.80950      -     -    0s
     0     0  -23.80950    0  108          -  -23.80950      -     -    0s
H    0     0                     -21.1786840  -23.80950  12.4%     -    0s
H    0     0                     -21.1966938  -23.80950  12.3%     -    0s
     0     2  -23.80950    0  108  -21.19669  -23.80950  12.3%     -    0s
* 1745   939              76     -21.1970232  -22.56492  6.45%  62.3    1s
* 1747   939              77     -21.1970325  -22.56492  6.45%  62.2    1s
* 1749   939              78     -21.1970357  -22.56492  6.45%  62.2    1s
* 1752   939              79     -21.1970358  -22.56492  6.45%  62.1    1s
* 2169  1163              64     -21.5210933  -22.56492  4.85%  59.6    2s
* 2173  1163              66     -21.5210974  -22.56492  4.85%  59.5    2s
* 2174  1163              66     -21.5210977  -22.56492  4.85%  59.5    2s
* 5665  1873              39     -21.5237993  -22.16742  2.99%  56.9    4s
* 6746  1440              61     -21.5238661  -22.16742  2.99%  60.7    4s
  6784  1436  -22.16742   20  161  -21.52387  -22.16742  2.99%  60.7    5s
* 7718  1198              53     -21.5239810  -22.16742  2.99%  61.3    5s
* 8401  1121              66     -21.5505288  -22.16742  2.86%  60.6    5s
* 8605  1037              61     -21.6014118  -22.16742  2.62%  60.4    5s
* 8607   972              62     -21.6014297  -22.16742  2.62%  60.4    5s
*10695  1018              76     -21.6197591  -22.16742  2.53%  58.9    6s
*10697  1018              77     -21.6197935  -22.16742  2.53%  58.9    6s
*10840  1069              70     -21.6378041  -22.16742  2.45%  58.8    6s
*10843  1069              71     -21.6378052  -22.16742  2.45%  58.7    6s
*10844  1069              72     -21.6378053  -22.16742  2.45%  58.7    6s
*13251  1242              66     -21.6424068  -21.84776  0.95%  56.8    7s
*13252  1242              66     -21.6424631  -21.84776  0.95%  56.8    7s
*13692  1279              69     -21.6428434  -21.82688  0.85%  56.1    7s
*13695  1279              70     -21.6428619  -21.82688  0.85%  56.1    7s
*13798  1279              68     -21.6434564  -21.81868  0.81%  56.0    7s
*13801  1279              68     -21.6434733  -21.81868  0.81%  55.9    7s
*13803  1279              66     -21.6439399  -21.81868  0.81%  55.9    7s
*14022  1279              64     -21.6465038  -21.81382  0.77%  55.5    7s
*16133  1079              58     -21.6485045  -21.71650  0.31%  53.2    8s
*16795  1042              61     -21.6486133  -21.70361  0.25%  52.1    8s
*16858  1042              63     -21.6487763  -21.70084  0.24%  52.0    8s
*16861  1042              63     -21.6487835  -21.70084  0.24%  52.0    8s
*17636  1440              65     -21.6532164  -21.69950  0.21%  50.6    8s
*18838  1721              58     -21.6532830  -21.68046  0.13%  48.2    8s
*18839  1721              57     -21.6532897  -21.68046  0.13%  48.2    8s
*18841  1721              57     -21.6533281  -21.68046  0.13%  48.2    8s
*18899  1721              69     -21.6552311  -21.68046  0.12%  48.1    8s
*19965  1995              67     -21.6558690  -21.66412  0.04%  46.1    8s
*20126  1995              60     -21.6565450  -21.66171  0.02%  45.8    8s
*20618  1995              62     -21.6567886  -21.66171  0.02%  44.9    8s
*20621  1995              63     -21.6567897  -21.66171  0.02%  44.9    8s
*20622  1995              64     -21.6567898  -21.66171  0.02%  44.9    8s
*21089  1121              66     -21.6568301  -21.66016  0.02%  44.1    8s
*21115  1121              64     -21.6569444  -21.65902  0.01%  44.0    8s
*21133  1121              65     -21.6569496  -21.65902  0.01%  44.0    8s
*21218  1121              62     -21.6569800  -21.65848  0.01%  43.8    8s
*21430  1121              55     -21.6575049  -21.65823  0.00%  43.4    8s

Explored 22621 nodes (933292 simplex iterations) in 8.94 seconds
Thread count was 32 (of 72 available processors)

Solution count 10: -21.6575 -21.657 -21.6569 ... -21.6552

Optimal solution found (tolerance 1.00e-04)
Best objective -2.165750494672e+01, best bound -2.165777135966e+01, gap 0.0012%

User-callback calls 46244, time in user-callback 0.02 sec



objective value: -21.65750494671736
objective bound: -21.657771359658604
x_opt: [1.5750747617018172e-5, 1.0, 1.0, 0.0, 0.0, 0.0, 1.0, 1.0, 0.00040044899186240636, 0.0, 0.25288069849639033, 0.4231351158007539, 0.0, 1.0, 1.0, 1.0, 0.0, 1.0, 1.3553180104679296e-5, 0.0, 0.0, 1.0, 1.0, 1.0, 0.0, 1.0, 1.0, 1.0, 0.0, 0.9997545553905216, 1.0, 0.8518393355325368, 0.0, 0.2155238834387392, 1.0, 1.0, 1.0, 1.0, 0.32632412367665, 1.0, 0.8617043791816572, 0.27329226630928694, 1.0, 0.0, 0.0, 0.7729784350618116, 0.09200755883497465, 0.1305647178391735, 0.0, 1.0]
GUROBI solution time: 8.942263126373291

